c ind 11 153 16 17 173 183 187 20 21 25 0
c ind 43 45 47 49 5 57 6 79 81 96 0
p cnf 187 681
-1 -2 154 0
-1 2 175 0
-10 -11 11 0
-100 -33 101 0
-100 33 103 0
-101 -102 0
-102 -25 57 0
-102 -57 25 0
-103 -4 101 0
-103 4 104 0
-104 -39 101 0
-104 39 105 0
-105 -51 106 0
-105 51 108 0
-106 -107 0
-107 -57 57 0
-108 -59 106 0
-108 59 109 0
-109 -64 106 0
-109 64 110 0
-110 -68 111 0
-110 68 113 0
-111 -112 0
-112 -57 6 0
-112 -6 57 0
-113 -74 114 0
-113 74 115 0
-114 -77 101 0
-114 77 106 0
-115 -83 106 0
-115 83 116 0
-116 -86 106 0
-116 86 117 0
-117 -89 111 0
-117 89 118 0
-118 -92 119 0
-118 92 101 0
-119 -94 101 0
-119 94 106 0
-12 -13 22 0
-12 13 30 0
-120 -59 99 0
-120 59 121 0
-121 -64 99 0
-121 64 122 0
-122 -68 123 0
-122 68 144 0
-123 -8 124 0
-123 8 127 0
-124 -33 125 0
-124 33 127 0
-125 -126 0
-126 -25 6 0
-126 -6 25 0
-127 -4 125 0
-127 4 128 0
-128 -39 125 0
-128 39 129 0
-129 -51 130 0
-129 51 132 0
-13 14 18 0
-130 -131 0
-131 -57 6 0
-131 -6 57 0
-132 -59 130 0
-132 59 133 0
-133 -64 130 0
-133 64 134 0
-134 -68 135 0
-134 68 137 0
-135 -136 0
-136 -6 6 0
-137 -74 138 0
-137 74 139 0
-138 -77 125 0
-138 77 130 0
-139 -83 130 0
-139 83 140 0
-14 -15 0
-140 -86 130 0
-140 86 141 0
-141 -89 135 0
-141 89 142 0
-142 -92 143 0
-142 92 125 0
-143 -94 125 0
-143 94 130 0
-144 -74 145 0
-144 74 146 0
-145 -77 7 0
-145 77 99 0
-146 -83 99 0
-146 83 147 0
-147 -86 99 0
-147 86 148 0
-148 -89 123 0
-148 89 149 0
-149 -92 150 0
-149 92 7 0
-15 -16 17 0
-15 -17 16 0
-150 -94 7 0
-150 94 99 0
-151 -152 0
-152 -153 153 0
-154 -155 172 0
-154 155 174 0
-155 156 0
-155 171 0
-156 -8 157 0
-156 8 158 0
-157 -33 25 0
-157 33 158 0
-158 -4 25 0
-158 4 159 0
-159 -39 25 0
-159 39 160 0
-160 -51 102 0
-160 51 161 0
-161 -59 102 0
-161 59 162 0
-162 -64 102 0
-162 64 163 0
-163 -68 6 0
-163 68 164 0
-164 -74 165 0
-164 74 166 0
-165 -77 25 0
-165 77 102 0
-166 -83 102 0
-166 83 167 0
-167 -86 102 0
-167 86 168 0
-168 -89 6 0
-168 89 169 0
-169 -92 170 0
-169 92 25 0
-170 -94 25 0
-170 94 102 0
-171 -153 25 0
-171 -25 153 0
-172 -173 25 0
-172 -25 173 0
-174 -173 6 0
-174 -6 173 0
-175 -176 177 0
-175 176 179 0
-176 103 151 0
-177 -178 172 0
-177 178 174 0
-178 158 0
-178 171 0
-179 -180 184 0
-179 180 186 0
-18 -19 0
-180 106 181 0
-181 -182 0
-182 -153 183 0
-182 -183 153 0
-184 -185 172 0
-184 185 174 0
-185 102 0
-185 171 0
-186 -173 187 0
-186 -187 173 0
-19 -20 21 0
-19 -21 20 0
-2 3 151 0
-22 -23 27 0
-22 23 29 0
-23 24 0
-23 26 0
-24 -16 25 0
-24 -25 16 0
-26 -20 25 0
-26 -25 20 0
-27 -28 0
-28 -25 5 0
-28 -5 25 0
-29 -4 0
-3 -4 7 0
-3 4 97 0
-30 -31 0
-31 -5 5 0
-32 -33 35 0
-32 33 37 0
-33 -13 34 0
-33 13 4 0
-34 -23 6 0
-34 23 25 0
-35 -36 0
-36 -25 25 0
-37 -4 35 0
-37 4 38 0
-38 -39 35 0
-38 39 50 0
-39 40 0
-39 48 0
-4 -5 6 0
-4 -6 5 0
-40 41 0
-40 46 0
-41 42 0
-41 44 0
-42 -43 6 0
-42 -6 43 0
-44 -45 6 0
-44 -6 45 0
-46 -47 6 0
-46 -6 47 0
-48 -49 6 0
-48 -6 49 0
-50 -51 55 0
-50 51 58 0
-51 48 0
-51 52 0
-52 46 0
-52 53 0
-53 44 0
-53 54 0
-54 -25 43 0
-54 -43 25 0
-55 -56 0
-56 -25 57 0
-56 -57 25 0
-58 -59 55 0
-58 59 63 0
-59 48 0
-59 60 0
-6 0
-60 46 0
-60 61 0
-61 42 0
-61 62 0
-62 -25 45 0
-62 -45 25 0
-63 -64 55 0
-63 64 67 0
-64 48 0
-64 65 0
-65 46 0
-65 66 0
-66 54 0
-66 62 0
-67 -68 71 0
-67 68 73 0
-68 48 0
-68 69 0
-69 41 0
-69 70 0
-7 -8 32 0
-7 8 37 0
-70 -25 47 0
-70 -47 25 0
-71 -72 0
-72 -25 6 0
-72 -6 25 0
-73 -74 76 0
-73 74 82 0
-74 48 0
-74 75 0
-75 53 0
-75 70 0
-76 -77 35 0
-76 77 55 0
-77 78 0
-77 80 0
-78 -25 79 0
-78 -79 25 0
-8 9 12 0
-80 -25 81 0
-80 -81 25 0
-82 -83 55 0
-82 83 85 0
-83 48 0
-83 84 0
-84 61 0
-84 70 0
-85 -86 55 0
-85 86 88 0
-86 48 0
-86 87 0
-87 66 0
-87 70 0
-88 -89 71 0
-88 89 91 0
-89 40 0
-89 90 0
-9 -10 0
-90 -25 49 0
-90 -49 25 0
-91 -92 93 0
-91 92 35 0
-92 52 0
-92 90 0
-93 -94 35 0
-93 94 55 0
-94 95 78 0
-95 -25 96 0
-95 -96 25 0
-97 -39 7 0
-97 39 98 0
-98 -51 99 0
-98 51 120 0
-99 -8 100 0
-99 8 103 0
1 -154 -175 0
1 -2 -154 0
1 0
1 2 -175 0
10 -11 -11 0
10 11 11 0
100 -101 -103 0
100 -33 -101 0
100 33 -103 0
101 102 0
102 -57 -25 0
102 57 25 0
103 -101 -104 0
103 -4 -101 0
103 4 -104 0
104 -101 -105 0
104 -39 -101 0
104 39 -105 0
105 -106 -108 0
105 -51 -106 0
105 51 -108 0
106 107 0
107 -57 -57 0
107 57 57 0
108 -106 -109 0
108 -59 -106 0
108 59 -109 0
109 -106 -110 0
109 -64 -106 0
109 64 -110 0
110 -111 -113 0
110 -68 -111 0
110 68 -113 0
111 112 0
112 -57 -6 0
112 57 6 0
113 -114 -115 0
113 -74 -114 0
113 74 -115 0
114 -101 -106 0
114 -77 -101 0
114 77 -106 0
115 -106 -116 0
115 -83 -106 0
115 83 -116 0
116 -106 -117 0
116 -86 -106 0
116 86 -117 0
117 -111 -118 0
117 -89 -111 0
117 89 -118 0
118 -119 -101 0
118 -92 -119 0
118 92 -101 0
119 -101 -106 0
119 -94 -101 0
119 94 -106 0
12 -13 -22 0
12 -22 -30 0
12 13 -30 0
120 -59 -99 0
120 -99 -121 0
120 59 -121 0
121 -64 -99 0
121 -99 -122 0
121 64 -122 0
122 -123 -144 0
122 -68 -123 0
122 68 -144 0
123 -124 -127 0
123 -8 -124 0
123 8 -127 0
124 -125 -127 0
124 -33 -125 0
124 33 -127 0
125 126 0
126 -6 -25 0
126 6 25 0
127 -125 -128 0
127 -4 -125 0
127 4 -128 0
128 -125 -129 0
128 -39 -125 0
128 39 -129 0
129 -130 -132 0
129 -51 -130 0
129 51 -132 0
13 -14 0
13 -18 0
130 131 0
131 -6 -57 0
131 6 57 0
132 -130 -133 0
132 -59 -130 0
132 59 -133 0
133 -130 -134 0
133 -64 -130 0
133 64 -134 0
134 -135 -137 0
134 -68 -135 0
134 68 -137 0
135 136 0
136 -6 -6 0
136 6 6 0
137 -138 -139 0
137 -74 -138 0
137 74 -139 0
138 -125 -130 0
138 -77 -125 0
138 77 -130 0
139 -130 -140 0
139 -83 -130 0
139 83 -140 0
14 15 0
140 -130 -141 0
140 -86 -130 0
140 86 -141 0
141 -135 -142 0
141 -89 -135 0
141 89 -142 0
142 -143 -125 0
142 -92 -143 0
142 92 -125 0
143 -125 -130 0
143 -94 -125 0
143 94 -130 0
144 -145 -146 0
144 -74 -145 0
144 74 -146 0
145 -7 -99 0
145 -77 -7 0
145 77 -99 0
146 -83 -99 0
146 -99 -147 0
146 83 -147 0
147 -86 -99 0
147 -99 -148 0
147 86 -148 0
148 -123 -149 0
148 -89 -123 0
148 89 -149 0
149 -150 -7 0
149 -92 -150 0
149 92 -7 0
15 -16 -17 0
15 16 17 0
150 -7 -99 0
150 -94 -7 0
150 94 -99 0
151 152 0
152 -153 -153 0
152 153 153 0
154 -155 -172 0
154 -172 -174 0
154 155 -174 0
155 -156 -171 0
156 -157 -158 0
156 -8 -157 0
156 8 -158 0
157 -25 -158 0
157 -33 -25 0
157 33 -158 0
158 -25 -159 0
158 -4 -25 0
158 4 -159 0
159 -25 -160 0
159 -39 -25 0
159 39 -160 0
160 -102 -161 0
160 -51 -102 0
160 51 -161 0
161 -102 -162 0
161 -59 -102 0
161 59 -162 0
162 -102 -163 0
162 -64 -102 0
162 64 -163 0
163 -6 -164 0
163 -68 -6 0
163 68 -164 0
164 -165 -166 0
164 -74 -165 0
164 74 -166 0
165 -25 -102 0
165 -77 -25 0
165 77 -102 0
166 -102 -167 0
166 -83 -102 0
166 83 -167 0
167 -102 -168 0
167 -86 -102 0
167 86 -168 0
168 -6 -169 0
168 -89 -6 0
168 89 -169 0
169 -170 -25 0
169 -92 -170 0
169 92 -25 0
170 -25 -102 0
170 -94 -25 0
170 94 -102 0
171 -153 -25 0
171 153 25 0
172 -173 -25 0
172 173 25 0
174 -173 -6 0
174 173 6 0
175 -176 -177 0
175 -177 -179 0
175 176 -179 0
176 -103 0
176 -151 0
177 -172 -174 0
177 -178 -172 0
177 178 -174 0
178 -158 -171 0
179 -180 -184 0
179 -184 -186 0
179 180 -186 0
18 19 0
180 -106 0
180 -181 0
181 182 0
182 -153 -183 0
182 153 183 0
184 -172 -174 0
184 -185 -172 0
184 185 -174 0
185 -102 -171 0
186 -173 -187 0
186 173 187 0
19 -20 -21 0
19 20 21 0
2 -151 0
2 -3 0
22 -23 -27 0
22 -27 -29 0
22 23 -29 0
23 -24 -26 0
24 -16 -25 0
24 16 25 0
25 0
26 -20 -25 0
26 20 25 0
27 28 0
28 -5 -25 0
28 5 25 0
29 4 0
3 -4 -7 0
3 -7 -97 0
3 4 -97 0
30 31 0
31 -5 -5 0
31 5 5 0
32 -33 -35 0
32 -35 -37 0
32 33 -37 0
33 -13 -34 0
33 -34 -4 0
33 13 -4 0
34 -23 -6 0
34 -6 -25 0
34 23 -25 0
35 36 0
36 -25 -25 0
36 25 25 0
37 -35 -38 0
37 -4 -35 0
37 4 -38 0
38 -35 -50 0
38 -39 -35 0
38 39 -50 0
39 -40 -48 0
4 -5 -6 0
4 5 6 0
40 -41 -46 0
41 -42 -44 0
42 -43 -6 0
42 43 6 0
44 -45 -6 0
44 45 6 0
46 -47 -6 0
46 47 6 0
48 -49 -6 0
48 49 6 0
50 -51 -55 0
50 -55 -58 0
50 51 -58 0
51 -52 -48 0
52 -53 -46 0
53 -54 -44 0
54 -43 -25 0
54 43 25 0
55 56 0
56 -25 -57 0
56 25 57 0
58 -55 -63 0
58 -59 -55 0
58 59 -63 0
59 -60 -48 0
60 -61 -46 0
61 -42 -62 0
62 -45 -25 0
62 45 25 0
63 -55 -67 0
63 -64 -55 0
63 64 -67 0
64 -65 -48 0
65 -66 -46 0
66 -54 -62 0
67 -68 -71 0
67 -71 -73 0
67 68 -73 0
68 -69 -48 0
69 -41 -70 0
7 -32 -37 0
7 -8 -32 0
7 8 -37 0
70 -47 -25 0
70 47 25 0
71 72 0
72 -25 -6 0
72 25 6 0
73 -74 -76 0
73 -76 -82 0
73 74 -82 0
74 -75 -48 0
75 -53 -70 0
76 -35 -55 0
76 -77 -35 0
76 77 -55 0
77 -78 -80 0
78 -79 -25 0
78 79 25 0
8 -12 0
8 -9 0
80 -81 -25 0
80 81 25 0
82 -55 -85 0
82 -83 -55 0
82 83 -85 0
83 -84 -48 0
84 -61 -70 0
85 -55 -88 0
85 -86 -55 0
85 86 -88 0
86 -87 -48 0
87 -66 -70 0
88 -71 -91 0
88 -89 -71 0
88 89 -91 0
89 -40 -90 0
9 10 0
90 -49 -25 0
90 49 25 0
91 -92 -93 0
91 -93 -35 0
91 92 -35 0
92 -52 -90 0
93 -35 -55 0
93 -94 -35 0
93 94 -55 0
94 -78 0
94 -95 0
95 -96 -25 0
95 96 25 0
97 -39 -7 0
97 -7 -98 0
97 39 -98 0
98 -51 -99 0
98 -99 -120 0
98 51 -120 0
99 -100 -103 0
99 -8 -100 0
99 8 -103 0
